12608 8518 500 499 498 497 496 495 494 493 492 491 490 489 488 485 484 483 482 481 480 479 478 477 476 475 473 472 471 470 469 467 466 465 464 463 461 459 457 456 455 454 453 452 451 449 448 447 446 444 443 442 441 440 439 437 436 435 434 433 432 431 430 429 428 427 426 423 422 421 418 417 416 414 413 412 410 409 408 407 406 405 404 403 402 401 400 399 398 397 396 395 394 393 392 391 390 389 387 386 384 382 381 380 379 378 377 376 373 372 371 370 369 368 367 366 365 363 362 361 360 359 358 356 355 353 352 350 349 348 347 346 345 344 342 341 340 339 338 337 335 334 333 332 329 327 326 325 324 321 320 319 318 317 316 315 313 312 311 310 309 308 307 306 305 304 303 302 301 298 297 296 295 294 293 292 290 289 288 287 285 284 283 282 281 280 279 278 277 276 275 274 273 272 271 270 269 268 267 266 265 263 262 260 259 258 257 256 254 253 251 250 249 248 246 245 244 243 242 241 240 239 238 236 235 234 233 232 231 230 229 227 225 224 222 221 220 218 217 216 214 213 212 211 210 209 208 207 206 205 204 203 202 201 199 198 196 194 193 192 191 190 189 188 187 186 185 184 182 181 179 177 176 175 174 173 172 171 170 169 168 167 166 165 164 163 162 161 160 159 158 157 156 155 154 153 152 151 149 148 147 146 145 144 143 142 141 140 139 138 137 136 135 134 133 132 131 130 129 128 127 126 124 123 120 119 118 117 116 114 112 111 110 109 108 107 106 105 104 101 100 99 98 97 96 95 94 92 90 89 87 86 83 82 81 79 78 77 75 72 71 70 68 67 66 65 64 63 62 59 58 57 56 55 54 51 46 45 44 43 42 41 40 39 38 37 36 35 34 33 32 31 29 28 27 26 24 22 21 20 19 16 15 13 12 11 10 9 8 6 5 